31 88 62 63 90 32 10 
53 94 96 6 
27 69 30 51 71 65 66 20 70 1 
72 75 23 67 39 25 55 54 24 80 
59 44 38 14 43 57 97 13 58 
12 29 78 79 3 77 50 
99 5 84 17 60 89 
95 92 98 16 86 61 85 91 100 37 93 
2 15 42 87 40 26 
83 45 8 18 
28 76 33 81 9 35 34 68 
52 82 47 19 7 
21 73 41 22 74 56 4 
11 64 49 36 46 48 
